NAME : pr439.opt.tour
COMMENT : Tour result for pr439.tsp (109748.0)
TYPE : TOUR
DIMENSION : 439
TOUR_SECTION
22
24
23
25
64
65
66
67
68
69
70
71
72
88
89
90
91
104
105
106
107
108
109
146
144
145
185
148
147
112
111
110
74
73
63
29
27
26
28
30
31
32
17
16
15
14
13
12
11
10
9
8
7
6
5
4
1
3
2
52
51
50
48
47
49
46
45
43
41
40
44
42
39
38
37
36
35
34
33
62
75
76
61
60
59
77
87
86
78
58
57
79
80
81
82
56
55
54
53
83
84
85
149
186
226
227
439
435
436
437
438
434
403
408
409
411
410
425
426
424
427
430
433
432
422
423
412
413
407
406
399
392
391
396
397
398
393
395
394
384
382
383
372
371
373
381
375
374
340
341
342
343
344
284
283
228
229
282
281
230
187
188
189
225
231
232
280
285
286
287
288
289
290
291
292
293
359
357
358
356
355
354
352
353
351
350
349
347
348
346
345
376
377
379
380
390
389
414
421
420
419
415
416
431
429
428
418
417
405
404
402
400
401
388
387
386
385
378
369
368
367
366
365
364
363
362
361
370
360
339
338
337
336
335
334
333
300
299
298
297
296
295
294
279
278
277
276
275
274
273
301
272
271
270
269
268
267
266
265
306
305
304
302
303
330
332
331
329
328
327
326
325
324
323
322
321
320
319
318
317
315
314
313
312
311
310
309
308
307
264
263
262
261
260
259
258
257
256
316
254
255
252
253
209
208
207
206
205
203
204
174
173
172
171
170
168
169
166
167
165
164
163
162
134
135
136
137
160
161
175
176
202
201
200
199
198
197
196
195
194
193
221
220
219
218
217
216
215
214
213
212
211
210
250
251
249
248
247
246
245
244
243
242
241
240
239
238
237
236
235
234
233
222
223
224
190
191
184
192
183
182
181
180
179
178
177
159
158
157
156
155
154
153
151
150
143
152
142
141
140
139
138
122
120
117
121
119
118
116
113
114
115
103
102
92
93
94
100
101
123
125
124
126
127
129
130
131
132
133
128
99
98
97
96
95
18
19
20
21
-1
EOF